33D32945 STP File, STP Format Version 1.0

SECTION Comment
Name "i640-102-PCST"
Creator "Indaco Biazzo" 
Remark "derived from Incidence graph by Cees Duin"
END

SECTION Graph
Nodes 640
Edges 960
E 1 9 295.000000
E 1 38 196.000000
E 1 42 194.000000
E 1 97 204.000000
E 1 183 202.000000
E 1 485 200.000000
E 1 507 196.000000
E 1 528 196.000000
E 1 534 206.000000
E 1 550 207.000000
E 2 97 201.000000
E 2 139 199.000000
E 2 187 201.000000
E 2 246 199.000000
E 2 277 198.000000
E 2 503 193.000000
E 3 373 201.000000
E 4 112 199.000000
E 4 587 199.000000
E 5 245 196.000000
E 6 92 191.000000
E 6 539 203.000000
E 7 131 198.000000
E 7 403 198.000000
E 7 494 202.000000
E 8 432 195.000000
E 8 571 199.000000
E 9 189 202.000000
E 9 385 205.000000
E 9 458 197.000000
E 9 470 201.000000
E 9 551 202.000000
E 10 25 300.000000
E 10 29 200.000000
E 10 135 200.000000
E 10 216 194.000000
E 10 287 201.000000
E 10 545 192.000000
E 11 26 203.000000
E 11 308 202.000000
E 11 323 203.000000
E 11 332 203.000000
E 11 477 201.000000
E 12 69 197.000000
E 12 77 206.000000
E 12 87 197.000000
E 12 129 202.000000
E 12 259 203.000000
E 12 445 197.000000
E 13 136 200.000000
E 13 425 201.000000
E 14 203 195.000000
E 14 334 205.000000
E 14 601 195.000000
E 15 59 195.000000
E 15 195 197.000000
E 16 61 206.000000
E 16 65 190.000000
E 16 178 193.000000
E 16 204 201.000000
E 16 243 201.000000
E 16 286 195.000000
E 16 486 201.000000
E 16 625 200.000000
E 17 116 205.000000
E 18 280 204.000000
E 18 345 204.000000
E 19 360 206.000000
E 19 457 202.000000
E 19 619 208.000000
E 20 63 199.000000
E 20 350 202.000000
E 20 396 199.000000
E 20 468 201.000000
E 20 587 204.000000
E 21 168 200.000000
E 21 341 201.000000
E 22 330 201.000000
E 22 356 203.000000
E 22 507 200.000000
E 23 192 193.000000
E 23 371 201.000000
E 23 611 200.000000
E 24 53 191.000000
E 24 238 193.000000
E 25 493 200.000000
E 26 95 94.000000
E 26 134 106.000000
E 26 176 98.000000
E 26 621 100.000000
E 27 28 96.000000
E 27 42 98.000000
E 27 280 105.000000
E 27 358 93.000000
E 28 593 102.000000
E 29 96 95.000000
E 29 331 94.000000
E 30 197 105.000000
E 30 424 89.000000
E 30 432 101.000000
E 31 390 93.000000
E 31 408 100.000000
E 31 581 106.000000
E 32 91 103.000000
E 32 126 99.000000
E 32 298 91.000000
E 32 327 106.000000
E 32 564 98.000000
E 33 36 101.000000
E 33 300 107.000000
E 34 150 101.000000
E 35 523 103.000000
E 36 152 101.000000
E 36 614 98.000000
E 37 112 102.000000
E 37 326 101.000000
E 37 619 98.000000
E 38 78 95.000000
E 38 276 105.000000
E 38 300 105.000000
E 38 495 100.000000
E 38 507 99.000000
E 39 296 98.000000
E 40 253 104.000000
E 40 545 100.000000
E 41 77 93.000000
E 41 220 103.000000
E 41 312 101.000000
E 41 516 103.000000
E 41 555 107.000000
E 42 236 97.000000
E 42 240 105.000000
E 42 404 99.000000
E 42 623 96.000000
E 42 628 96.000000
E 43 182 92.000000
E 43 487 109.000000
E 44 67 106.000000
E 44 164 90.000000
E 45 92 95.000000
E 45 98 92.000000
E 45 265 101.000000
E 46 156 96.000000
E 46 529 100.000000
E 46 584 98.000000
E 47 140 102.000000
E 47 175 105.000000
E 47 292 101.000000
E 47 374 96.000000
E 47 637 102.000000
E 48 320 91.000000
E 49 101 95.000000
E 49 139 110.000000
E 50 303 101.000000
E 50 617 105.000000
E 51 118 94.000000
E 51 234 113.000000
E 51 483 109.000000
E 52 138 98.000000
E 52 389 87.000000
E 52 402 96.000000
E 52 431 99.000000
E 52 473 90.000000
E 52 615 98.000000
E 52 618 96.000000
E 53 284 103.000000
E 53 591 102.000000
E 54 325 97.000000
E 54 523 100.000000
E 54 575 94.000000
E 54 631 104.000000
E 55 450 102.000000
E 56 271 97.000000
E 56 568 105.000000
E 56 582 99.000000
E 57 411 105.000000
E 57 603 97.000000
E 58 85 108.000000
E 58 135 96.000000
E 58 505 95.000000
E 59 128 90.000000
E 59 236 104.000000
E 60 581 97.000000
E 61 222 99.000000
E 62 69 104.000000
E 62 200 95.000000
E 62 332 106.000000
E 62 362 106.000000
E 62 537 96.000000
E 63 126 102.000000
E 63 214 98.000000
E 63 533 98.000000
E 63 620 105.000000
E 64 187 92.000000
E 64 283 97.000000
E 64 302 95.000000
E 64 448 107.000000
E 65 500 100.000000
E 65 602 97.000000
E 66 160 102.000000
E 66 236 106.000000
E 66 266 100.000000
E 66 361 103.000000
E 66 475 100.000000
E 66 524 104.000000
E 66 576 99.000000
E 67 345 106.000000
E 67 568 101.000000
E 68 168 92.000000
E 68 409 91.000000
E 69 169 95.000000
E 69 295 93.000000
E 69 432 102.000000
E 70 348 97.000000
E 70 575 99.000000
E 71 141 103.000000
E 71 283 106.000000
E 71 364 107.000000
E 72 320 100.000000
E 72 339 99.000000
E 73 174 104.000000
E 74 219 100.000000
E 74 231 102.000000
E 74 324 100.000000
E 74 586 92.000000
E 75 231 102.000000
E 75 297 96.000000
E 75 408 96.000000
E 76 171 102.000000
E 76 184 109.000000
E 76 354 101.000000
E 76 524 97.000000
E 77 88 95.000000
E 77 623 96.000000
E 78 184 100.000000
E 78 257 98.000000
E 78 471 101.000000
E 79 197 102.000000
E 80 353 101.000000
E 80 508 104.000000
E 81 136 102.000000
E 81 210 97.000000
E 81 216 100.000000
E 81 360 102.000000
E 81 405 96.000000
E 81 510 99.000000
E 82 113 96.000000
E 82 137 93.000000
E 83 117 96.000000
E 83 130 90.000000
E 83 154 100.000000
E 83 399 102.000000
E 83 528 100.000000
E 84 422 106.000000
E 84 478 99.000000
E 85 595 104.000000
E 86 504 89.000000
E 86 619 91.000000
E 87 97 97.000000
E 87 449 98.000000
E 88 183 96.000000
E 88 334 95.000000
E 88 465 98.000000
E 88 573 101.000000
E 88 617 100.000000
E 89 322 92.000000
E 90 324 101.000000
E 91 168 99.000000
E 91 335 102.000000
E 93 176 95.000000
E 93 262 101.000000
E 93 626 95.000000
E 94 550 98.000000
E 95 198 94.000000
E 95 419 108.000000
E 96 621 107.000000
E 97 278 104.000000
E 97 437 101.000000
E 97 452 91.000000
E 98 404 104.000000
E 99 128 95.000000
E 99 396 101.000000
E 100 442 97.000000
E 100 530 101.000000
E 100 575 99.000000
E 101 226 96.000000
E 102 313 99.000000
E 103 148 110.000000
E 103 561 98.000000
E 104 305 100.000000
E 104 591 107.000000
E 105 257 102.000000
E 105 264 103.000000
E 106 187 98.000000
E 106 257 98.000000
E 106 466 104.000000
E 107 394 103.000000
E 107 408 102.000000
E 108 127 91.000000
E 108 550 94.000000
E 108 609 101.000000
E 109 140 94.000000
E 109 581 112.000000
E 110 281 95.000000
E 110 418 98.000000
E 111 114 102.000000
E 111 304 99.000000
E 112 130 97.000000
E 113 275 102.000000
E 113 461 102.000000
E 113 573 94.000000
E 114 280 103.000000
E 115 251 103.000000
E 115 306 102.000000
E 116 219 96.000000
E 116 282 105.000000
E 117 296 99.000000
E 117 542 97.000000
E 118 285 102.000000
E 118 316 101.000000
E 118 494 103.000000
E 119 185 105.000000
E 119 363 96.000000
E 119 516 95.000000
E 120 536 94.000000
E 121 371 108.000000
E 121 425 96.000000
E 121 505 97.000000
E 121 566 107.000000
E 121 610 108.000000
E 121 636 99.000000
E 122 191 95.000000
E 122 415 99.000000
E 122 523 98.000000
E 123 186 101.000000
E 123 617 105.000000
E 124 580 98.000000
E 125 387 110.000000
E 125 548 103.000000
E 126 237 95.000000
E 126 287 100.000000
E 127 190 100.000000
E 127 331 97.000000
E 127 409 103.000000
E 127 463 101.000000
E 127 629 105.000000
E 128 371 102.000000
E 129 224 98.000000
E 129 239 97.000000
E 129 263 104.000000
E 129 615 102.000000
E 130 275 102.000000
E 130 423 103.000000
E 132 269 99.000000
E 132 579 95.000000
E 133 176 98.000000
E 133 281 100.000000
E 133 354 98.000000
E 134 386 105.000000
E 135 274 92.000000
E 135 289 109.000000
E 135 522 88.000000
E 136 280 101.000000
E 136 348 102.000000
E 136 448 99.000000
E 136 468 108.000000
E 137 290 104.000000
E 137 380 101.000000
E 137 523 99.000000
E 138 172 91.000000
E 138 393 95.000000
E 140 321 97.000000
E 141 363 99.000000
E 142 392 92.000000
E 142 393 98.000000
E 142 609 102.000000
E 143 496 96.000000
E 143 593 106.000000
E 144 157 100.000000
E 144 291 99.000000
E 144 626 100.000000
E 145 414 97.000000
E 145 465 98.000000
E 146 263 97.000000
E 147 424 101.000000
E 147 507 99.000000
E 148 579 101.000000
E 148 584 97.000000
E 149 280 96.000000
E 149 355 98.000000
E 149 382 100.000000
E 150 577 100.000000
E 151 232 92.000000
E 152 266 96.000000
E 152 315 95.000000
E 153 160 94.000000
E 153 228 104.000000
E 153 232 104.000000
E 153 476 94.000000
E 153 498 97.000000
E 154 367 103.000000
E 154 388 94.000000
E 155 429 99.000000
E 155 471 95.000000
E 156 197 92.000000
E 156 212 97.000000
E 156 378 89.000000
E 156 537 96.000000
E 156 580 97.000000
E 156 593 98.000000
E 157 262 108.000000
E 158 564 103.000000
E 159 241 88.000000
E 160 185 104.000000
E 160 211 97.000000
E 160 233 101.000000
E 160 339 98.000000
E 160 557 106.000000
E 160 589 93.000000
E 161 163 98.000000
E 161 553 95.000000
E 161 582 102.000000
E 162 247 85.000000
E 162 479 104.000000
E 162 501 101.000000
E 163 544 108.000000
E 164 323 94.000000
E 164 599 99.000000
E 165 262 95.000000
E 165 378 106.000000
E 166 396 96.000000
E 166 509 99.000000
E 167 270 98.000000
E 168 197 97.000000
E 168 550 100.000000
E 168 617 98.000000
E 169 344 105.000000
E 169 434 93.000000
E 170 457 96.000000
E 170 528 101.000000
E 171 519 98.000000
E 172 637 104.000000
E 173 323 102.000000
E 173 412 102.000000
E 173 568 102.000000
E 174 249 95.000000
E 174 309 101.000000
E 174 332 105.000000
E 175 182 102.000000
E 175 207 102.000000
E 175 493 95.000000
E 175 561 95.000000
E 176 349 98.000000
E 176 453 103.000000
E 177 275 102.000000
E 177 343 100.000000
E 177 377 99.000000
E 178 193 99.000000
E 178 326 106.000000
E 179 298 93.000000
E 179 585 100.000000
E 180 438 105.000000
E 181 296 94.000000
E 182 373 98.000000
E 182 632 94.000000
E 182 634 102.000000
E 183 324 98.000000
E 183 417 97.000000
E 183 513 97.000000
E 183 547 94.000000
E 184 261 100.000000
E 184 304 102.000000
E 184 446 92.000000
E 184 482 107.000000
E 185 299 95.000000
E 186 319 100.000000
E 186 474 96.000000
E 186 498 102.000000
E 187 408 98.000000
E 187 560 105.000000
E 188 500 103.000000
E 188 568 102.000000
E 188 617 94.000000
E 189 324 90.000000
E 189 603 104.000000
E 190 577 95.000000
E 191 194 96.000000
E 191 234 98.000000
E 191 486 96.000000
E 192 281 110.000000
E 192 420 102.000000
E 192 541 107.000000
E 192 563 103.000000
E 192 593 96.000000
E 194 384 99.000000
E 194 416 98.000000
E 195 199 96.000000
E 195 234 98.000000
E 195 352 96.000000
E 195 360 101.000000
E 195 488 106.000000
E 196 210 90.000000
E 198 473 102.000000
E 199 343 114.000000
E 199 478 103.000000
E 199 638 105.000000
E 201 232 97.000000
E 201 480 100.000000
E 201 502 99.000000
E 201 515 92.000000
E 202 332 101.000000
E 202 369 97.000000
E 202 430 108.000000
E 202 519 94.000000
E 202 618 103.000000
E 203 401 100.000000
E 204 515 98.000000
E 204 551 108.000000
E 205 249 96.000000
E 205 260 99.000000
E 205 499 105.000000
E 205 586 103.000000
E 205 606 103.000000
E 206 283 99.000000
E 206 367 102.000000
E 206 605 99.000000
E 206 628 103.000000
E 208 504 100.000000
E 209 419 95.000000
E 210 337 102.000000
E 210 438 90.000000
E 211 550 100.000000
E 212 428 101.000000
E 213 261 92.000000
E 213 310 99.000000
E 214 333 103.000000
E 214 359 102.000000
E 214 485 100.000000
E 214 610 108.000000
E 215 228 105.000000
E 215 406 96.000000
E 215 595 93.000000
E 216 512 102.000000
E 217 397 102.000000
E 218 460 104.000000
E 218 606 96.000000
E 219 372 107.000000
E 221 286 102.000000
E 221 307 99.000000
E 221 549 92.000000
E 223 432 98.000000
E 223 512 100.000000
E 223 594 97.000000
E 224 334 92.000000
E 225 266 92.000000
E 225 511 88.000000
E 226 277 96.000000
E 227 428 104.000000
E 227 477 96.000000
E 228 408 99.000000
E 228 559 97.000000
E 229 417 96.000000
E 230 281 100.000000
E 230 416 105.000000
E 230 427 104.000000
E 230 608 95.000000
E 231 608 94.000000
E 232 441 102.000000
E 235 281 94.000000
E 236 307 94.000000
E 236 329 100.000000
E 236 373 110.000000
E 237 309 105.000000
E 238 638 100.000000
E 239 622 104.000000
E 240 382 105.000000
E 240 383 105.000000
E 240 458 100.000000
E 241 431 100.000000
E 241 595 98.000000
E 242 515 102.000000
E 243 285 95.000000
E 243 295 102.000000
E 243 322 95.000000
E 243 414 97.000000
E 244 277 95.000000
E 244 607 101.000000
E 245 349 96.000000
E 245 530 106.000000
E 245 534 93.000000
E 246 399 103.000000
E 248 366 107.000000
E 248 404 105.000000
E 248 549 94.000000
E 249 550 96.000000
E 250 570 103.000000
E 250 629 103.000000
E 251 434 98.000000
E 252 272 86.000000
E 252 306 104.000000
E 252 628 106.000000
E 253 390 104.000000
E 253 441 97.000000
E 253 536 102.000000
E 254 313 110.000000
E 254 421 97.000000
E 255 283 97.000000
E 255 347 102.000000
E 255 375 99.000000
E 255 573 100.000000
E 256 418 92.000000
E 256 606 111.000000
E 257 268 96.000000
E 257 310 99.000000
E 257 342 99.000000
E 257 378 106.000000
E 257 413 110.000000
E 257 491 94.000000
E 257 529 101.000000
E 258 374 92.000000
E 258 600 95.000000
E 260 385 100.000000
E 260 423 98.000000
E 260 479 97.000000
E 261 305 97.000000
E 261 468 101.000000
E 263 372 98.000000
E 265 367 99.000000
E 266 522 93.000000
E 266 582 105.000000
E 267 314 102.000000
E 267 318 98.000000
E 267 400 93.000000
E 267 490 103.000000
E 268 600 108.000000
E 269 539 108.000000
E 269 557 100.000000
E 269 584 98.000000
E 270 422 103.000000
E 273 597 98.000000
E 273 640 99.000000
E 274 438 89.000000
E 274 450 100.000000
E 274 540 105.000000
E 276 279 99.000000
E 276 325 102.000000
E 276 501 98.000000
E 277 301 111.000000
E 277 385 108.000000
E 278 414 96.000000
E 278 555 104.000000
E 279 583 96.000000
E 279 618 111.000000
E 281 365 105.000000
E 281 467 100.000000
E 281 507 99.000000
E 281 517 96.000000
E 281 523 99.000000
E 282 375 95.000000
E 282 406 102.000000
E 283 489 92.000000
E 284 361 97.000000
E 284 506 97.000000
E 284 627 103.000000
E 285 485 101.000000
E 285 603 95.000000
E 286 452 106.000000
E 286 509 101.000000
E 287 395 101.000000
E 287 622 87.000000
E 288 318 97.000000
E 288 574 107.000000
E 290 318 107.000000
E 290 398 95.000000
E 290 521 102.000000
E 290 525 103.000000
E 291 497 96.000000
E 291 576 104.000000
E 292 412 105.000000
E 293 546 98.000000
E 294 306 92.000000
E 295 387 97.000000
E 295 434 91.000000
E 295 491 100.000000
E 295 595 102.000000
E 295 630 108.000000
E 295 639 104.000000
E 296 381 95.000000
E 296 397 100.000000
E 296 456 97.000000
E 297 428 94.000000
E 299 541 97.000000
E 300 415 96.000000
E 300 432 101.000000
E 300 478 104.000000
E 301 391 103.000000
E 302 312 96.000000
E 302 338 96.000000
E 302 569 97.000000
E 303 511 101.000000
E 304 350 95.000000
E 305 466 100.000000
E 305 567 90.000000
E 306 386 108.000000
E 306 597 94.000000
E 307 347 89.000000
E 307 630 105.000000
E 311 363 95.000000
E 311 554 100.000000
E 312 453 102.000000
E 312 616 101.000000
E 313 352 93.000000
E 313 385 104.000000
E 313 401 110.000000
E 313 423 90.000000
E 313 454 90.000000
E 313 457 97.000000
E 315 354 102.000000
E 315 590 102.000000
E 316 598 100.000000
E 316 603 93.000000
E 317 338 98.000000
E 317 399 102.000000
E 317 440 101.000000
E 317 509 98.000000
E 317 549 103.000000
E 319 569 93.000000
E 319 596 97.000000
E 320 367 107.000000
E 320 490 105.000000
E 320 550 98.000000
E 320 604 103.000000
E 322 532 97.000000
E 324 404 98.000000
E 324 488 96.000000
E 324 523 101.000000
E 325 352 101.000000
E 326 619 114.000000
E 327 377 97.000000
E 327 527 97.000000
E 328 550 99.000000
E 329 414 98.000000
E 329 486 91.000000
E 330 438 109.000000
E 331 438 97.000000
E 332 373 107.000000
E 332 498 101.000000
E 332 546 95.000000
E 332 619 98.000000
E 332 635 99.000000
E 333 374 94.000000
E 333 620 106.000000
E 334 408 107.000000
E 335 384 91.000000
E 336 548 108.000000
E 337 373 98.000000
E 337 430 100.000000
E 338 552 103.000000
E 338 627 107.000000
E 338 638 101.000000
E 339 442 108.000000
E 339 557 100.000000
E 340 371 110.000000
E 340 427 101.000000
E 340 473 102.000000
E 340 497 95.000000
E 340 562 93.000000
E 340 607 99.000000
E 340 632 90.000000
E 342 444 104.000000
E 342 527 96.000000
E 342 552 107.000000
E 342 614 109.000000
E 343 406 107.000000
E 343 590 95.000000
E 346 360 109.000000
E 346 397 110.000000
E 347 374 99.000000
E 347 454 99.000000
E 347 580 99.000000
E 348 627 95.000000
E 349 504 96.000000
E 351 360 98.000000
E 354 381 105.000000
E 356 565 86.000000
E 357 424 94.000000
E 357 501 100.000000
E 358 496 106.000000
E 359 605 92.000000
E 361 599 91.000000
E 363 435 95.000000
E 363 539 103.000000
E 363 603 97.000000
E 367 622 110.000000
E 368 392 102.000000
E 368 466 85.000000
E 368 491 93.000000
E 370 455 113.000000
E 371 550 100.000000
E 371 596 103.000000
E 372 465 100.000000
E 373 555 95.000000
E 375 385 105.000000
E 376 457 96.000000
E 376 514 109.000000
E 377 487 96.000000
E 377 589 101.000000
E 378 389 92.000000
E 378 579 99.000000
E 379 465 102.000000
E 379 503 96.000000
E 380 534 101.000000
E 383 514 100.000000
E 384 387 100.000000
E 384 592 98.000000
E 385 576 107.000000
E 386 437 99.000000
E 386 439 111.000000
E 387 432 101.000000
E 387 624 96.000000
E 388 436 97.000000
E 388 617 103.000000
E 389 638 103.000000
E 391 410 100.000000
E 393 474 103.000000
E 395 637 101.000000
E 396 417 101.000000
E 396 468 100.000000
E 396 605 99.000000
E 397 455 92.000000
E 397 460 103.000000
E 397 477 104.000000
E 397 550 103.000000
E 397 597 105.000000
E 398 461 98.000000
E 398 532 105.000000
E 399 421 99.000000
E 399 469 105.000000
E 400 582 93.000000
E 401 587 102.000000
E 401 590 97.000000
E 402 417 100.000000
E 405 556 93.000000
E 406 420 96.000000
E 406 512 96.000000
E 407 460 98.000000
E 409 457 90.000000
E 409 629 103.000000
E 410 492 97.000000
E 411 567 95.000000
E 411 624 108.000000
E 416 435 102.000000
E 417 433 93.000000
E 418 526 99.000000
E 419 460 103.000000
E 422 481 107.000000
E 422 507 95.000000
E 424 472 101.000000
E 426 453 100.000000
E 426 606 99.000000
E 427 442 114.000000
E 427 532 97.000000
E 427 612 93.000000
E 432 486 101.000000
E 432 512 95.000000
E 432 531 101.000000
E 432 624 98.000000
E 434 443 97.000000
E 435 555 93.000000
E 438 449 105.000000
E 438 635 97.000000
E 439 634 101.000000
E 440 498 100.000000
E 445 489 90.000000
E 447 484 106.000000
E 447 611 98.000000
E 449 453 102.000000
E 449 622 106.000000
E 450 521 111.000000
E 451 507 93.000000
E 452 490 104.000000
E 453 633 101.000000
E 454 605 98.000000
E 455 511 93.000000
E 456 477 100.000000
E 458 538 106.000000
E 459 487 105.000000
E 459 578 100.000000
E 460 571 103.000000
E 461 518 99.000000
E 461 575 95.000000
E 462 475 98.000000
E 464 582 104.000000
E 465 508 101.000000
E 465 557 104.000000
E 466 548 101.000000
E 466 575 93.000000
E 468 620 96.000000
E 469 565 99.000000
E 471 519 99.000000
E 473 483 96.000000
E 474 612 88.000000
E 475 580 91.000000
E 476 499 100.000000
E 476 558 96.000000
E 478 485 99.000000
E 479 507 98.000000
E 482 535 98.000000
E 483 518 99.000000
E 485 535 100.000000
E 485 615 98.000000
E 489 637 98.000000
E 493 537 107.000000
E 495 595 97.000000
E 498 578 99.000000
E 498 605 105.000000
E 501 603 100.000000
E 502 595 101.000000
E 502 636 100.000000
E 506 575 100.000000
E 508 562 98.000000
E 509 543 105.000000
E 512 617 98.000000
E 514 537 102.000000
E 514 550 103.000000
E 519 587 101.000000
E 520 615 93.000000
E 521 544 94.000000
E 521 577 99.000000
E 524 573 97.000000
E 526 595 103.000000
E 527 580 98.000000
E 542 597 106.000000
E 549 551 103.000000
E 550 611 91.000000
E 553 565 101.000000
E 559 623 101.000000
E 561 595 107.000000
E 565 612 100.000000
E 568 581 97.000000
E 571 635 103.000000
E 572 635 98.000000
E 573 574 100.000000
E 579 631 99.000000
E 580 588 102.000000
E 581 596 101.000000
E 583 597 97.000000
E 583 622 94.000000
E 590 595 101.000000
E 591 617 94.000000
E 593 594 100.000000
E 595 640 98.000000
E 599 628 104.000000
E 602 612 102.000000
E 605 620 96.000000
E 608 619 102.000000
E 611 621 97.000000
E 612 629 96.000000
E 613 640 110.000000
E 615 616 97.000000
END

SECTION Terminals
Terminals 25
TP 1 1116.000000
TP 2 536.000000
TP 3 580.000000
TP 4 332.000000
TP 5 304.000000
TP 6 172.000000
TP 7 592.000000
TP 8 868.000000
TP 9 628.000000
TP 10 608.000000
TP 11 500.000000
TP 12 704.000000
TP 13 1132.000000
TP 14 144.000000
TP 15 172.000000
TP 16 1172.000000
TP 17 728.000000
TP 18 908.000000
TP 19 304.000000
TP 20 248.000000
TP 21 848.000000
TP 22 1104.000000
TP 23 156.000000
TP 24 676.000000
TP 25 80.000000
END

EOF
